100
300
210
209
205
203
202
199
199
192
191
191
191
189
188
188
186
185
184
179
179
178
177
175
169
169
168
168
168
167
167
166
164
161
161
161
160
159
158
155
154
152
145
145
141
141
141
141
140
139
139
136
134
131
130
130
130
127
126
125
124
124
122
121
121
121
121
119
118
118
117
115
115
112
109
109
108
107
105
104
101
97
96
89
85
84
84
83
82
81
80
78
74
72
72
72
71
70
69
68
67
64
